21
273 299 
307 472 
357 269 
410 347 271 
395 261 361 
275 466 474 
303 450 252 
414 288 298 
473 445 366 
350 320 251 
272 254 287 
258 255 370 
273 268 272 
351 269 372 
283 252 252 
439 366 355 
263 366 292 
275 274 259 
419 444 315 
363 430 298 
495 350 262 
